unsat
(:max-memory          18.43
 :memory              18.33
 :num-allocs          49924
 :rlimit-count        1127
 :solve-eqs-elim-vars 2
 :solve-eqs-steps     5
 :time                0.00
 :total-time          0.02)
